units lj
atom_style	atomic
dimension	2

region		box block 0 800 0 800 -0.5 0.5
create_box	1 box
create_atoms    1 random 10976 12345 NULL overlap 3.9 maxtry 50

mass		1 1

velocity all set NULL 5 NULL

pair_style	lj/cut 2.5
pair_coeff	1 1 1.0 1.0 2.5

fix 1 all nve
dump 1 all atom 10 dump.lammpstrj
run 1000
