units lj
atom_style	atomic
dimension	2

region		box block 0 800 0 800 -0.5 0.5
create_box	1 box
create_atoms    1 random 10976 12345 NULL overlap 3.9 maxtry 50

variable x_center equal 400
variable y_center equal 400

mass		1 1

# initialize computes
run 0

compute dist all property/atom x y
variable vx atom v_x_center-c_dist[1]
variable vy atom v_y_center-c_dist[2]
run 0
velocity all set v_vx v_vy NULL

pair_style	lj/cut 2.5
pair_coeff	1 1 1.0 1.0 2.5

fix 1 all nve
dump 1 all atom 10 dump.lammpstrj
run 500
