# LAMMPS Input Script: Set velocity to zero for atoms entering a center region

# --- Initialization ---
units lj          # Use Lennard-Jones units
atom_style atomic
dimension 2       # 2D simulation
boundary f f p    # Set boundary conditions: fixed (non-periodic) in x and y, periodic in z (standard for 2D)

# --- System Definition ---
variable box_size equal 800
variable half_box equal ${box_size}/2
region box block 0 ${box_size} 0 ${box_size} -0.5 0.5 units box # Define simulation box boundaries
create_box 1 box                     # Create the simulation box with 1 atom type

create_atoms 1 random 10976 12345 NULL overlap 3.9 maxtry 50

mass 1 1.0                           # Set mass of atom type 1

# --- Variables ---
variable x_center equal ${half_box}         # x-coordinate of the center
variable y_center equal ${half_box}         # y-coordinate of the center
variable center_radius equal 50.0          # Radius of the central region where velocity is dampened
variable vel_scale equal 1              # Scaling factor for initial velocity magnitude (adjust if needed)
variable center_damping equal 0.5

# --- Define Center Region ---
region center_zone cylinder z ${x_center} ${y_center} ${center_radius} EDGE EDGE units box

# --- Interactions ---
pair_style lj/cut 2.5
pair_coeff 1 1 1.0 1.0 2.5

# --- Initial Relaxation ---
# Minimize energy to relax initial overlaps and high forces
minimize 1.0e-4 1.0e-6 1000 10000

# --- Initial Velocities --
variable vx_init atom v_vel_scale*(${x_center}-x)
variable vy_init atom v_vel_scale*(${y_center}-y)
# Apply the calculated velocities to all atoms, initializing at zero total linear momentum
velocity all set v_vx_init v_vy_init 0.0 sum yes

# --- Group Atoms in Center ---
# Create a dynamic group containing atoms currently inside the 'center_zone' region every 1 step
group center_atoms dynamic all region center_zone every 1

# --- Integration ---
fix 1 all nve             # Basic NVE time integration (updates position and velocity based on forces)
fix 2 center_atoms viscous ${center_damping}

# --- Simulation Settings ---
timestep 0.00001 # Timestep for integration (in lj time units) - Keep it small for stability
thermo 1000     # Output thermodynamic info every 1000 steps
thermo_style custom step temp pe ke etotal press vol atoms

# --- Output ---
# Dump atom positions and velocities every 1000 steps to output file
# Removed damping-related variables from dump
dump 1 all custom 1000 center_log.lammpstrj id type x y vx vy fx fy

# --- Run Simulation ---
# Run for N steps. Crucially, use the 'every' keyword to execute a command periodically.
# Every 1 step, set the velocity of atoms in the 'center_atoms' group to zero.
run 130000
