units lj
atom_style atomic
lattice fcc 0.8442
region box block 0 10 0 10 0 10
create_box 1 box
create_atoms 1 box
mass 1 1
pair_style lj/cut 2.5
pair_coeff 1 1 1.0 1.0 2.5
velocity all create 1.0 12345
fix 1 all nve
dump 1 all atom 10 dump.lammpstrj
run 100
